results/res_prop_muc/res_Cimatti_mathsat_cores/QF_LRA/windowreal-no_t_deadlock-1.smt.smt2.res
unsat
( c105
  c116
  c126
  c138
  c148
  c163
  c27
  c3
  c312
  c4
  c55
  c71
  c84
  c95 )
